
Gurobi 8.1.0 (linux64, Java) logging started seg 05 nov 2018 13:36:44 -02

Academic license - for non-commercial use only
Optimize a model with 2 rows, 3 columns and 5 nonzeros
Variable types: 0 continuous, 3 integer (3 binary)
Coefficient statistics:
  Matrix range     [1e+00, 3e+00]
  Objective range  [1e+00, 2e+00]
  Bounds range     [1e+00, 1e+00]
  RHS range        [1e+00, 4e+00]
Found heuristic solution: objective 2.0000000
Presolve removed 2 rows and 3 columns
Presolve time: 0.05s
Presolve: All rows and columns removed

Explored 0 nodes (0 simplex iterations) in 0.10 seconds
Thread count was 1 (of 4 available processors)

Solution count 2: 3 2 

Optimal solution found (tolerance 1.00e-04)
Best objective 3.000000000000e+00, best bound 3.000000000000e+00, gap 0.0000%

Gurobi 8.1.0 (linux64, Java) logging started seg 05 nov 2018 15:38:17 -02

Academic license - for non-commercial use only
Optimize a model with 9 rows, 37 columns and 74 nonzeros
Variable types: 0 continuous, 37 integer (33 binary)
Coefficient statistics:
  Matrix range     [6e-03, 4e+03]
  Objective range  [6e-03, 2e-01]
  Bounds range     [1e+00, 1e+00]
  RHS range        [1e+00, 3e+00]
Presolve time: 0.00s

Explored 0 nodes (0 simplex iterations) in 0.00 seconds
Thread count was 1 (of 4 available processors)

Solution count 0

Model is infeasible
Best objective -, best bound -, gap -

Gurobi 8.1.0 (linux64, Java) logging started Mon Nov  5 15:54:22 2018

Academic license - for non-commercial use only
Optimize a model with 9 rows, 37 columns and 74 nonzeros
Variable types: 0 continuous, 37 integer (33 binary)
Coefficient statistics:
  Matrix range     [6e-03, 4e+03]
  Objective range  [6e-03, 2e-01]
  Bounds range     [1e+00, 1e+00]
  RHS range        [1e+00, 3e+00]
Presolve time: 0.00s

Explored 0 nodes (0 simplex iterations) in 0.00 seconds
Thread count was 1 (of 4 available processors)

Solution count 0

Model is infeasible
Best objective -, best bound -, gap -

Gurobi 8.1.0 (linux64, Java) logging started seg 05 nov 2018 16:02:07 -02

Academic license - for non-commercial use only
Optimize a model with 10 rows, 37 columns and 76 nonzeros
Variable types: 0 continuous, 37 integer (33 binary)
Coefficient statistics:
  Matrix range     [6e-03, 4e+03]
  Objective range  [6e-03, 2e-01]
  Bounds range     [1e+00, 1e+00]
  RHS range        [1e+00, 3e+00]
Presolve time: 0.00s

Explored 0 nodes (0 simplex iterations) in 0.00 seconds
Thread count was 1 (of 4 available processors)

Solution count 0

Model is infeasible
Best objective -, best bound -, gap -

Gurobi 8.1.0 (linux64, Java) logging started seg 05 nov 2018 16:24:26 -02

Academic license - for non-commercial use only
Optimize a model with 10 rows, 37 columns and 76 nonzeros
Variable types: 0 continuous, 37 integer (33 binary)
Coefficient statistics:
  Matrix range     [6e-03, 4e+03]
  Objective range  [6e-03, 2e-01]
  Bounds range     [1e+00, 1e+00]
  RHS range        [1e+00, 3e+00]
Presolve time: 0.00s

Explored 0 nodes (0 simplex iterations) in 0.00 seconds
Thread count was 1 (of 4 available processors)

Solution count 0

Model is infeasible
Best objective -, best bound -, gap -

Gurobi 8.1.0 (linux64, Java) logging started seg 05 nov 2018 16:28:03 -02

Academic license - for non-commercial use only
Optimize a model with 10 rows, 37 columns and 76 nonzeros
Variable types: 0 continuous, 37 integer (33 binary)
Coefficient statistics:
  Matrix range     [6e-03, 4e+03]
  Objective range  [6e-03, 2e-01]
  Bounds range     [1e+00, 1e+00]
  RHS range        [1e+00, 3e+00]
Presolve time: 0.00s

Explored 0 nodes (0 simplex iterations) in 0.00 seconds
Thread count was 1 (of 4 available processors)

Solution count 0

Model is infeasible
Best objective -, best bound -, gap -

Gurobi 8.1.0 (linux64, Java) logging started seg 05 nov 2018 16:29:28 -02

Academic license - for non-commercial use only
Optimize a model with 9 rows, 37 columns and 72 nonzeros
Variable types: 0 continuous, 37 integer (33 binary)
Coefficient statistics:
  Matrix range     [5e-01, 4e+03]
  Objective range  [6e-03, 2e-01]
  Bounds range     [1e+00, 1e+00]
  RHS range        [1e+00, 1e+00]
Presolve time: 0.00s

Explored 0 nodes (0 simplex iterations) in 0.00 seconds
Thread count was 1 (of 4 available processors)

Solution count 0

Model is infeasible
Best objective -, best bound -, gap -

Gurobi 8.1.0 (linux64, Java) logging started seg 05 nov 2018 16:31:41 -02

Academic license - for non-commercial use only
Optimize a model with 10 rows, 37 columns and 76 nonzeros
Variable types: 0 continuous, 37 integer (33 binary)
Coefficient statistics:
  Matrix range     [6e-03, 4e+03]
  Objective range  [6e-03, 2e-01]
  Bounds range     [1e+00, 1e+00]
  RHS range        [4e-01, 1e+00]
Presolve removed 1 rows and 0 columns
Presolve time: 0.00s

Explored 0 nodes (0 simplex iterations) in 0.00 seconds
Thread count was 1 (of 4 available processors)

Solution count 0

Model is infeasible
Best objective -, best bound -, gap -

Gurobi 8.1.0 (linux64, Java) logging started seg 05 nov 2018 16:34:29 -02

Academic license - for non-commercial use only
Optimize a model with 10 rows, 37 columns and 76 nonzeros
Variable types: 0 continuous, 37 integer (33 binary)
Coefficient statistics:
  Matrix range     [6e-03, 4e+03]
  Objective range  [6e-03, 2e-01]
  Bounds range     [1e+00, 1e+00]
  RHS range        [7e-01, 1e+00]
Presolve removed 1 rows and 0 columns
Presolve time: 0.00s

Explored 0 nodes (0 simplex iterations) in 0.00 seconds
Thread count was 1 (of 4 available processors)

Solution count 0

Model is infeasible
Best objective -, best bound -, gap -

Gurobi 8.1.0 (linux64, Java) logging started seg 05 nov 2018 16:38:24 -02

Academic license - for non-commercial use only
Optimize a model with 9 rows, 37 columns and 74 nonzeros
Variable types: 0 continuous, 37 integer (33 binary)
Coefficient statistics:
  Matrix range     [6e-03, 4e+03]
  Objective range  [6e-03, 2e-01]
  Bounds range     [1e+00, 1e+00]
  RHS range        [7e-01, 1e+00]
Presolve removed 1 rows and 0 columns
Presolve time: 0.00s

Explored 0 nodes (0 simplex iterations) in 0.00 seconds
Thread count was 1 (of 4 available processors)

Solution count 0

Model is infeasible
Best objective -, best bound -, gap -
